130757
1 20 21 27 29 32 31 30 35 34 33 18 9 10 71 72 60 61 62 63 58 59 56 57 51 50 52 53 55 54 73 74 4 3 6 5 12 13 17 36 39 38 37 15 16 14 68 69 70 66 67 45 46 48 49 41 42 43 44 47 64 65 11 8 7 19 28 26 40 24 25 23 22 0 75 2 
